1023	1009	1037	1074	1109
1194	1188	1004	1065	1135
1063	1024	1182	1159	1081
1003	1156	1116	1062	1065
1059	1037	1112	1184	1234
1113	974	1189	1026	1058
1229	1187	1027	1136	1015
1000	1175	1104	1053	1019
1094	1162	1012	1160	1114
1080	1119	1023	1155	1063
